617
1   1   0    0    0 0
1   2   64   79   0 42 19 40 41 13 0
1   3   50   78   0 18 4 17 37 44 0
1   4   0    0    0 0
2   1   28   30   0 27 6 0
2   2   31   55   0 12 5 46 0
2   3   79   73   0 24 43 7 23 48 0
2   4   51   74   0 14 25 47 0
3   1   36   70   0 38 11 16 50 9 0
3   2   25   45   0 30 34 0
3   3   0    0    0 0
3   4   63   80   0 10 39 33 45 15 49 0
4   1   56   74   0 3 28 22 2 29 0
4   2   39   51   0 20 36 35 0
4   3   0    0    0 0
4   4   95   68   0 21 32 1 8 26 31 0